n_res = 4;
rc = [ 25, 30, 28, 28 ];
n_tasks = 30;
d = [ 9, 7, 7, 2, 4, 2, 2, 7, 4, 9, 6, 8, 4, 8, 7, 10, 5, 2, 2, 10, 10, 6, 9, 10, 6, 10, 4, 8, 7, 1 ];
rr = [| 9, 2, 5, 7, 1, 1, 4, 1, 5, 3, 8, 7, 7, 1, 2, 9, 2, 3, 10, 1, 6, 4, 2, 5, 8, 3, 8, 8, 10, 8
      | 5, 4, 5, 8, 5, 3, 1, 3, 9, 10, 3, 3, 6, 3, 6, 1, 5, 8, 8, 2, 10, 5, 5, 8, 10, 10, 3, 2, 8, 10
      | 5, 9, 5, 3, 7, 9, 9, 8, 7, 4, 5, 2, 9, 1, 8, 8, 4, 2, 9, 8, 2, 1, 3, 9, 6, 4, 9, 9, 5, 4
      | 1, 6, 2, 4, 5, 7, 4, 4, 7, 9, 6, 6, 10, 2, 1, 10, 2, 8, 9, 3, 7, 9, 5, 3, 9, 6, 3, 8, 5, 10 |];
suc = [ { 7, 9, 11 },
       { 4, 5, 8 },
       { 5, 16, 18 },
       { 6, 9, 22 },
       { 6, 10, 13 },
       { 12, 17, 20 },
       { 16, 22 },
       { 13, 15, 20 },
       { 10, 14, 26 },
       { 21, 23, 27 },
       { 13, 15, 18 },
       { 21, 28, 29 },
       { 17, 27 },
       { 15, 20, 29 },
       { 16, 24, 25 },
       { 23 },
       { 19, 21 },
       { 19, 22 },
       { 23, 26 },
       { 24, 25 },
       { 30 },
       { 24, 25, 26 },
       { 28 },
       { 30 },
       { 27, 28 },
       { 29 },
       { 30 },
       {  },
       {  },
       {  } ];
